(set-logic BV) (define-fun origCir ((n167 Bool) (n325 Bool) (n254 Bool) (n207 Bool) (i41 Bool)) Bool (xor (and (xor n325 (not (and n254 n207))) n167) i41)) (synth-fun skel ((n167 Bool) (n325 Bool) (n254 Bool) (n207 Bool) (i41 Bool)) Bool) (declare-var n167 Bool) (declare-var n325 Bool) (declare-var n254 Bool) (declare-var n207 Bool) (declare-var i41 Bool) (constraint (= (origCir n167 n325 n254 n207 i41) (skel n167 n325 n254 n207 i41))) (check-synth)
